GLPSOL--GLPK LP/MIP Solver 5.0
Parameter(s) specified in the command line:
 --lp ../modeles/5_49.lp --log 5_49.log
Reading problem data from '../modeles/5_49.lp'...
266 rows, 500 columns, 1740 non-zeros
245 integer variables, all of which are binary
777 lines were read
GLPK Integer Optimizer 5.0
266 rows, 500 columns, 1740 non-zeros
245 integer variables, all of which are binary
Preprocessing...
250 constraint coefficient(s) were reduced
266 rows, 495 columns, 1735 non-zeros
245 integer variables, all of which are binary
Scaling...
 A: min|aij| =  1.666e-03  max|aij| =  4.000e+00  ratio =  2.401e+03
GM: min|aij| =  1.429e-01  max|aij| =  7.000e+00  ratio =  4.900e+01
EQ: min|aij| =  2.041e-02  max|aij| =  1.000e+00  ratio =  4.900e+01
2N: min|aij| =  1.562e-02  max|aij| =  1.754e+00  ratio =  1.122e+02
Constructing initial basis...
Size of triangular part is 266
Solving LP relaxation...
GLPK Simplex Optimizer 5.0
266 rows, 495 columns, 1735 non-zeros
      0: obj =   1.000000000e+01 inf =   2.450e+01 (11)
     44: obj =   4.960416667e-01 inf =   0.000e+00 (0)
*   139: obj =  -2.235204082e+00 inf =   4.243e-15 (0)
OPTIMAL LP SOLUTION FOUND
Integer optimization begins...
Long-step dual simplex will be used
+   139: mip =     not found yet >=              -inf        (1; 0)
+   142: >>>>>  -2.235204082e+00 >=  -2.235204082e+00 < 0.1% (4; 0)
+   142: mip =  -2.235204082e+00 >=     tree is empty   0.0% (0; 7)
INTEGER OPTIMAL SOLUTION FOUND
Time used:   0.0 secs
Memory used: 0.8 Mb (798047 bytes)
